# citation: Beland, Lu, Osetskiy, Samolyuk, Caro, Wang, and Stoller (2016), Journal of Applied Physics, 119(8), 085901. DOI: 10.1063/1.4942533.
# Example LAMMPS pair_style, pair_coeff lines for Ni-Co potential with zbl hardening for collision cascade simulations
# Assumes lengths in Angstroms

# pair_style with zbl inner and outer cutoffs of 0.5 and 2.0 Angstroms, respectively
pair_style hybrid/overlay zbl 0.5 2.0 eam/alloy

# pair_coeff lines for atom types 1=Ni and 2=Co
pair_coeff 1 1 zbl 28 28
pair_coeff 1 2 zbl 28 27
pair_coeff 2 2 zbl 27 27
pair_coeff * * eam/alloy NiCo-lammps-2014.alloy Ni Co