 pair_style hybrid/overlay eam/alloy eam/fs
 pair_coeff * * eam/alloy FeCCr_d.eam.alloy Fe C Cr
 pair_coeff * * eam/fs FeCCr_s.eam.fs Fe C Cr
 3 Fe C Cr
        5000   4.0000000000000001E-002        5000   1.0600000000000000E-003   5.2999999999999998     
          26   55.844999999999999        2.8553246300000001       bcc
  0.000000000000E+00 -0.200001077026E+00 -0.282847020575E+00 -0.346419854731E+00
 -0.400017232363E+00 -0.447240521024E+00 -0.489936721233E+00 -0.529203036009E+00
 -0.565754353801E+00 -0.600087237809E+00 -0.632563232660E+00 -0.663455275331E+00
 -0.692975410688E+00 -0.721292266867E+00 -0.748542566896E+00 -0.774838990141E+00
 -0.800275705780E+00 -0.824932369234E+00 -0.848877073237E+00 -0.872168569513E+00
 -0.894857969999E+00 -0.916990069296E+00 -0.938604386590E+00 -0.959735996522E+00
 -0.980416199015E+00 -0.100067306464E+01 -0.102053188268E+01 -0.104001553229E+01
 -0.105914479229E+01 -0.107793860163E+01 -0.109641427961E+01 -0.111458771351E+01
 -0.113247351898E+01 -0.115008517816E+01 -0.116743515909E+01 -0.118453501935E+01
 -0.120139549650E+01 -0.121802658734E+01 -0.123443761749E+01 -0.125063730284E+01
 -0.126663380398E+01 -0.128243477443E+01 -0.129804740377E+01 -0.131347845599E+01
 -0.132873430402E+01 -0.134382096062E+01 -0.135874410629E+01 -0.137350911436E+01
 -0.138812107381E+01 -0.140258480987E+01 -0.141690490276E+01 -0.143108570479E+01
 -0.144513135590E+01 -0.145904579789E+01 -0.147283278748E+01 -0.148649590821E+01
 -0.150003858141E+01 -0.151346407635E+01 -0.152677551948E+01 -0.153997590303E+01
 -0.155306809296E+01 -0.156605483627E+01 -0.157893876781E+01 -0.159172241657E+01
 -0.160440821159E+01 -0.161699848733E+01 -0.162949548879E+01 -0.164190137625E+01
 -0.165421822963E+01 -0.166644805266E+01 -0.167859277670E+01 -0.169065426435E+01
 -0.170263431285E+01 -0.171453465722E+01 -0.172635697324E+01 -0.173810288026E+01
 -0.174977394380E+01 -0.176137167803E+01 -0.177289754809E+01 -0.178435297232E+01
 -0.179573932427E+01 -0.180705793469E+01 -0.181831009336E+01 -0.182949705086E+01
 -0.184062002016E+01 -0.185168017826E+01 -0.186267866759E+01 -0.187361659746E+01
 -0.188449504538E+01 -0.189531505833E+01 -0.190607765392E+01 -0.191678382156E+01
 -0.192743452354E+01 -0.193803069606E+01 -0.194857325020E+01 -0.195906307285E+01
 -0.196950102761E+01 -0.197988795562E+01 -0.199022467640E+01 -0.200051198859E+01
 -0.201075067068E+01 -0.202094148175E+01 -0.203108516213E+01 -0.204118243400E+01
 -0.205123400205E+01 -0.206124055407E+01 -0.207120276147E+01 -0.208112127988E+01
 -0.209099674958E+01 -0.210082979610E+01 -0.211062103060E+01 -0.212037105038E+01
 -0.213008043930E+01 -0.213974976820E+01 -0.214937959530E+01 -0.215897046660E+01
 -0.216852291621E+01 -0.217803746677E+01 -0.218751462975E+01 -0.219695490577E+01
 -0.220635878496E+01 -0.221572674724E+01 -0.222505926261E+01 -0.223435679146E+01
 -0.224361978481E+01 -0.225284868458E+01 -0.226204392387E+01 -0.227120592719E+01
 -0.228033511067E+01 -0.228943188234E+01 -0.229849664229E+01 -0.230752978295E+01
 -0.231653168923E+01 -0.232550273877E+01 -0.233444330208E+01 -0.234335374278E+01
 -0.235223441774E+01 -0.236108567726E+01 -0.236990786527E+01 -0.237870131943E+01
 -0.238746637133E+01 -0.239620334666E+01 -0.240491256530E+01 -0.241359434149E+01
 -0.242224898399E+01 -0.243087679618E+01 -0.243947807620E+01 -0.244805311709E+01
 -0.245660220688E+01 -0.246512562874E+01 -0.247362366108E+01 -0.248209657765E+01
 -0.249054464767E+01 -0.249896813591E+01 -0.250736730284E+01 -0.251574240463E+01
 -0.252409369337E+01 -0.253242141707E+01 -0.254072581978E+01 -0.254900714168E+01
 -0.255726561917E+01 -0.256550148494E+01 -0.257371496806E+01 -0.258190629406E+01
 -0.259007568497E+01 -0.259822335947E+01 -0.260634953287E+01 -0.261445441727E+01
 -0.262253822154E+01 -0.263060115145E+01 -0.263864340973E+01 -0.264666519609E+01
 -0.265466670733E+01 -0.266264813735E+01 -0.267060967726E+01 -0.267855151541E+01
 -0.268647383744E+01 -0.269437682633E+01 -0.270226066248E+01 -0.271012552374E+01
 -0.271797158546E+01 -0.272579902055E+01 -0.273360799949E+01 -0.274139869044E+01
 -0.274917125923E+01 -0.275692586944E+01 -0.276466268240E+01 -0.277238185729E+01
 -0.278008355111E+01 -0.278776791880E+01 -0.279543511321E+01 -0.280308528516E+01
 -0.281071858352E+01 -0.281833515516E+01 -0.282593514506E+01 -0.283351869632E+01
 -0.284108595019E+01 -0.284863704608E+01 -0.285617212165E+01 -0.286369131279E+01
 -0.287119475367E+01 -0.287868257677E+01 -0.288615491291E+01 -0.289361189128E+01
 -0.290105363946E+01 -0.290848028344E+01 -0.291589194768E+01 -0.292328875510E+01
 -0.293067082713E+01 -0.293803828373E+01 -0.294539124339E+01 -0.295272982320E+01
 -0.296005413883E+01 -0.296736430457E+01 -0.297466043337E+01 -0.298194263683E+01
 -0.298921102525E+01 -0.299646570763E+01 -0.300370679170E+01 -0.301093438394E+01
 -0.301814858961E+01 -0.302534951274E+01 -0.303253725617E+01 -0.303971192159E+01
 -0.304687360952E+01 -0.305402241933E+01 -0.306115844929E+01 -0.306828179656E+01
 -0.307539255721E+01 -0.308249082626E+01 -0.308957669766E+01 -0.309665026432E+01
 -0.310371161814E+01 -0.311076085001E+01 -0.311779804984E+01 -0.312482330655E+01
 -0.313183670811E+01 -0.313883834152E+01 -0.314582829288E+01 -0.315280664734E+01
 -0.315977348917E+01 -0.316672890173E+01 -0.317367296750E+01 -0.318060576810E+01
 -0.318752738429E+01 -0.319443789598E+01 -0.320133738227E+01 -0.320822592143E+01
 -0.321510359091E+01 -0.322197046737E+01 -0.322882662670E+01 -0.323567214400E+01
 -0.324250709360E+01 -0.324933154911E+01 -0.325614558335E+01 -0.326294926844E+01
 -0.326974267578E+01 -0.327652587603E+01 -0.328329893918E+01 -0.329006193449E+01
 -0.329681493056E+01 -0.330355799532E+01 -0.331029119602E+01 -0.331701459924E+01
 -0.332372827095E+01 -0.333043227644E+01 -0.333712668039E+01 -0.334381154685E+01
 -0.335048693925E+01 -0.335715292043E+01 -0.336380955261E+01 -0.337045689742E+01
 -0.337709501593E+01 -0.338372396860E+01 -0.339034381533E+01 -0.339695461548E+01
 -0.340355642783E+01 -0.341014931061E+01 -0.341673332152E+01 -0.342330851773E+01
 -0.342987495587E+01 -0.343643269206E+01 -0.344298178188E+01 -0.344952228043E+01
 -0.345605424230E+01 -0.346257772157E+01 -0.346909277184E+01 -0.347559944624E+01
 -0.348209779738E+01 -0.348858787745E+01 -0.349506973812E+01 -0.350154343064E+01
 -0.350800900579E+01 -0.351446651389E+01 -0.352091600482E+01 -0.352735752803E+01
 -0.353379113252E+01 -0.354021686687E+01 -0.354663477923E+01 -0.355304491734E+01
 -0.355944732850E+01 -0.356584205963E+01 -0.357222915722E+01 -0.357860866738E+01
 -0.358498063580E+01 -0.359134510781E+01 -0.359770212831E+01 -0.360405174186E+01
 -0.361039399262E+01 -0.361672892437E+01 -0.362305658053E+01 -0.362937700415E+01
 -0.363569023792E+01 -0.364199632416E+01 -0.364829530486E+01 -0.365458722165E+01
 -0.366087211579E+01 -0.366715002823E+01 -0.367342099956E+01 -0.367968507004E+01
 -0.368594227962E+01 -0.369219266788E+01 -0.369843627411E+01 -0.370467313727E+01
 -0.371090329598E+01 -0.371712678859E+01 -0.372334365309E+01 -0.372955392720E+01
 -0.373575764833E+01 -0.374195485356E+01 -0.374814557970E+01 -0.375432986326E+01
 -0.376050774046E+01 -0.376667924722E+01 -0.377284441918E+01 -0.377900329170E+01
 -0.378515589985E+01 -0.379130227845E+01 -0.379744246200E+01 -0.380357648478E+01
 -0.380970438076E+01 -0.381582618366E+01 -0.382194192694E+01 -0.382805164380E+01
 -0.383415536717E+01 -0.384025312973E+01 -0.384634496391E+01 -0.385243090189E+01
 -0.385851097560E+01 -0.386458521673E+01 -0.387065365671E+01 -0.387671632675E+01
 -0.388277325780E+01 -0.388882448060E+01 -0.389487002563E+01 -0.390090992315E+01
 -0.390694420321E+01 -0.391297289559E+01 -0.391899602988E+01 -0.392501363544E+01
 -0.393102574139E+01 -0.393703237667E+01 -0.394303356996E+01 -0.394902934975E+01
 -0.395501974432E+01 -0.396100478172E+01 -0.396698448983E+01 -0.397295889627E+01
 -0.397892802849E+01 -0.398489191375E+01 -0.399085057906E+01 -0.399680405128E+01
 -0.400275235706E+01 -0.400869552282E+01 -0.401463357484E+01 -0.402056653918E+01
 -0.402649444170E+01 -0.403241730810E+01 -0.403833516387E+01 -0.404424803431E+01
 -0.405015594458E+01 -0.405605891960E+01 -0.406195698416E+01 -0.406785016283E+01
 -0.407373848004E+01 -0.407962196001E+01 -0.408550062682E+01 -0.409137450436E+01
 -0.409724361634E+01 -0.410310798632E+01 -0.410896763769E+01 -0.411482259366E+01
 -0.412067287728E+01 -0.412651851146E+01 -0.413235951890E+01 -0.413819592219E+01
 -0.414402774372E+01 -0.414985500576E+01 -0.415567773039E+01 -0.416149593956E+01
 -0.416730965505E+01 -0.417311889849E+01 -0.417892369136E+01 -0.418472405500E+01
 -0.419052001060E+01 -0.419631157917E+01 -0.420209878163E+01 -0.420788163870E+01
 -0.421366017099E+01 -0.421943439897E+01 -0.422520434294E+01 -0.423097002308E+01
 -0.423673145944E+01 -0.424248867190E+01 -0.424824168024E+01 -0.425399050408E+01
 -0.425973516291E+01 -0.426547567610E+01 -0.427121206287E+01 -0.427694434231E+01
 -0.428267253340E+01 -0.428839665496E+01 -0.429411672570E+01 -0.429983276422E+01
 -0.430554478895E+01 -0.431125281823E+01 -0.431695687027E+01 -0.432265696314E+01
 -0.432835311481E+01 -0.433404534312E+01 -0.433973366578E+01 -0.434541810039E+01
 -0.435109866444E+01 -0.435677537528E+01 -0.436244825016E+01 -0.436811730622E+01
 -0.437378256047E+01 -0.437944402981E+01 -0.438510173103E+01 -0.439075568080E+01
 -0.439640589570E+01 -0.440205239218E+01 -0.440769518658E+01 -0.441333429513E+01
 -0.441896973398E+01 -0.442460151913E+01 -0.443022966651E+01 -0.443585419192E+01
 -0.444147511107E+01 -0.444709243956E+01 -0.445270619289E+01 -0.445831638644E+01
 -0.446392303553E+01 -0.446952615532E+01 -0.447512576093E+01 -0.448072186734E+01
 -0.448631448944E+01 -0.449190364204E+01 -0.449748933983E+01 -0.450307159740E+01
 -0.450865042928E+01 -0.451422584987E+01 -0.451979787348E+01 -0.452536651434E+01
 -0.453093178657E+01 -0.453649370422E+01 -0.454205228123E+01 -0.454760753145E+01
 -0.455315946865E+01 -0.455870810650E+01 -0.456425345859E+01 -0.456979553840E+01
 -0.457533435935E+01 -0.458086993476E+01 -0.458640227786E+01 -0.459193140179E+01
 -0.459745731963E+01 -0.460298004434E+01 -0.460849958882E+01 -0.461401596588E+01
 -0.461952918824E+01 -0.462503926854E+01 -0.463054621935E+01 -0.463605005315E+01
 -0.464155078233E+01 -0.464704841920E+01 -0.465254297602E+01 -0.465803446493E+01
 -0.466352289801E+01 -0.466900828728E+01 -0.467449064464E+01 -0.467996998195E+01
 -0.468544631098E+01 -0.469091964342E+01 -0.469638999088E+01 -0.470185736492E+01
 -0.470732177699E+01 -0.471278323850E+01 -0.471824176076E+01 -0.472369735502E+01
 -0.472915003245E+01 -0.473459980415E+01 -0.474004668117E+01 -0.474549067444E+01
 -0.475093179487E+01 -0.475637005327E+01 -0.476180546039E+01 -0.476723802690E+01
 -0.477266776341E+01 -0.477809468047E+01 -0.478351878855E+01 -0.478894009805E+01
 -0.479435861931E+01 -0.479977436259E+01 -0.480518733812E+01 -0.481059755601E+01
 -0.481600502634E+01 -0.482140975913E+01 -0.482681176431E+01 -0.483221105176E+01
 -0.483760763130E+01 -0.484300151268E+01 -0.484839270557E+01 -0.485378121962E+01
 -0.485916706437E+01 -0.486455024933E+01 -0.486993078395E+01 -0.487530867758E+01
 -0.488068393956E+01 -0.488605657914E+01 -0.489142660551E+01 -0.489679402781E+01
 -0.490215885512E+01 -0.490752109645E+01 -0.491288076076E+01 -0.491823785695E+01
 -0.492359239387E+01 -0.492894438030E+01 -0.493429382496E+01 -0.493964073654E+01
 -0.494498512363E+01 -0.495032699481E+01 -0.495566635856E+01 -0.496100322334E+01
 -0.496633759754E+01 -0.497166948950E+01 -0.497699890749E+01 -0.498232585974E+01
 -0.498765035443E+01 -0.499297239967E+01 -0.499829200353E+01 -0.500360917403E+01
 -0.500892391911E+01 -0.501423624670E+01 -0.501954616465E+01 -0.502485368075E+01
 -0.503015880277E+01 -0.503546153839E+01 -0.504076189528E+01 -0.504605988104E+01
 -0.505135550320E+01 -0.505664876927E+01 -0.506193968669E+01 -0.506722826288E+01
 -0.507251450517E+01 -0.507779842087E+01 -0.508308001723E+01 -0.508835930146E+01
 -0.509363628070E+01 -0.509891096207E+01 -0.510418335263E+01 -0.510945345940E+01
 -0.511472128932E+01 -0.511998684934E+01 -0.512525014631E+01 -0.513051118706E+01
 -0.513576997838E+01 -0.514102652700E+01 -0.514628083960E+01 -0.515153292283E+01
 -0.515678278329E+01 -0.516203042753E+01 -0.516727586206E+01 -0.517251909334E+01
 -0.517776012780E+01 -0.518299897180E+01 -0.518823563169E+01 -0.519347011375E+01
 -0.519870242423E+01 -0.520393256932E+01 -0.520916055520E+01 -0.521438638797E+01
 -0.521961007372E+01 -0.522483161847E+01 -0.523005102823E+01 -0.523526830893E+01
 -0.524048346649E+01 -0.524569650677E+01 -0.525090743560E+01 -0.525611625877E+01
 -0.526132298202E+01 -0.526652761106E+01 -0.527173015154E+01 -0.527693060910E+01
 -0.528212898932E+01 -0.528732529775E+01 -0.529251953988E+01 -0.529771172119E+01
 -0.530290184711E+01 -0.530808992303E+01 -0.531327595429E+01 -0.531845994620E+01
 -0.532364190405E+01 -0.532882183307E+01 -0.533399973845E+01 -0.533917562537E+01
 -0.534434949893E+01 -0.534952136423E+01 -0.535469122632E+01 -0.535985909021E+01
 -0.536502496087E+01 -0.537018884324E+01 -0.537535074224E+01 -0.538051066272E+01
 -0.538566860951E+01 -0.539082458741E+01 -0.539597860118E+01 -0.540113065555E+01
 -0.540628075520E+01 -0.541142890479E+01 -0.541657510893E+01 -0.542171937221E+01
 -0.542686169918E+01 -0.543200209436E+01 -0.543714056222E+01 -0.544227710722E+01
 -0.544741173376E+01 -0.545254444622E+01 -0.545767524896E+01 -0.546280414627E+01
 -0.546793114245E+01 -0.547305624174E+01 -0.547817944834E+01 -0.548330076644E+01
 -0.548842020020E+01 -0.549353775371E+01 -0.549865343106E+01 -0.550376723631E+01
 -0.550887917348E+01 -0.551398924654E+01 -0.551909745945E+01 -0.552420381614E+01
 -0.552930832050E+01 -0.553441097638E+01 -0.553951178762E+01 -0.554461075801E+01
 -0.554970789132E+01 -0.555480319129E+01 -0.555989666161E+01 -0.556498830598E+01
 -0.557007812803E+01 -0.557516613137E+01 -0.558025231959E+01 -0.558533669624E+01
 -0.559041926486E+01 -0.559550002892E+01 -0.560057899191E+01 -0.560565615724E+01
 -0.561073152834E+01 -0.561580510858E+01 -0.562087690130E+01 -0.562594690983E+01
 -0.563101513745E+01 -0.563608158744E+01 -0.564114626301E+01 -0.564620916738E+01
 -0.565127030372E+01 -0.565632967519E+01 -0.566138728489E+01 -0.566644313594E+01
 -0.567149723138E+01 -0.567654957425E+01 -0.568160016758E+01 -0.568664901433E+01
 -0.569169611746E+01 -0.569674147990E+01 -0.570178510456E+01 -0.570682699430E+01
 -0.571186715197E+01 -0.571690558039E+01 -0.572194228235E+01 -0.572697726062E+01
 -0.573201051794E+01 -0.573704205703E+01 -0.574207188057E+01 -0.574709999122E+01
 -0.575212639162E+01 -0.575715108437E+01 -0.576217407207E+01 -0.576719535727E+01
 -0.577221494250E+01 -0.577723283028E+01 -0.578224902307E+01 -0.578726352334E+01
 -0.579227633352E+01 -0.579728745602E+01 -0.580229689321E+01 -0.580730464746E+01
 -0.581231072109E+01 -0.581731511641E+01 -0.582231783571E+01 -0.582731888124E+01
 -0.583231825524E+01 -0.583731595992E+01 -0.584231199745E+01 -0.584730637001E+01
 -0.585229907973E+01 -0.585729012872E+01 -0.586227951907E+01 -0.586726725285E+01
 -0.587225333211E+01 -0.587723775885E+01 -0.588222053507E+01 -0.588720166276E+01
 -0.589218114384E+01 -0.589715898026E+01 -0.590213517391E+01 -0.590710972668E+01
 -0.591208264041E+01 -0.591705391695E+01 -0.592202355810E+01 -0.592699156566E+01
 -0.593195794138E+01 -0.593692268702E+01 -0.594188580429E+01 -0.594684729489E+01
 -0.595180716050E+01 -0.595676540277E+01 -0.596172202334E+01 -0.596667702382E+01
 -0.597163040579E+01 -0.597658217083E+01 -0.598153232047E+01 -0.598648085624E+01
 -0.599142777965E+01 -0.599637309217E+01 -0.600131679526E+01 -0.600625889036E+01
 -0.601119937889E+01 -0.601613826224E+01 -0.602107554179E+01 -0.602601121888E+01
 -0.603094529486E+01 -0.603587777104E+01 -0.604080864869E+01 -0.604573792911E+01
 -0.605066561352E+01 -0.605559170317E+01 -0.606051619926E+01 -0.606543910299E+01
 -0.607036041550E+01 -0.607528013796E+01 -0.608019827150E+01 -0.608511481721E+01
 -0.609002977619E+01 -0.609494314950E+01 -0.609985493818E+01 -0.610476514328E+01
 -0.610967376579E+01 -0.611458080670E+01 -0.611948626699E+01 -0.612439014759E+01
 -0.612929244944E+01 -0.613419317344E+01 -0.613909232050E+01 -0.614398989147E+01
 -0.614888588722E+01 -0.615378030856E+01 -0.615867315633E+01 -0.616356443130E+01
 -0.616845413426E+01 -0.617334226597E+01 -0.617822882715E+01 -0.618311381854E+01
 -0.618799724082E+01 -0.619287909469E+01 -0.619775938079E+01 -0.620263809979E+01
 -0.620751525230E+01 -0.621239083894E+01 -0.621726486028E+01 -0.622213731691E+01
 -0.622700820937E+01 -0.623187753820E+01 -0.623674530391E+01 -0.624161150701E+01
 -0.624647614797E+01 -0.625133922726E+01 -0.625620074532E+01 -0.626106070257E+01
 -0.626591909943E+01 -0.627077593629E+01 -0.627563121352E+01 -0.628048493148E+01
 -0.628533709050E+01 -0.629018769091E+01 -0.629503673301E+01 -0.629988421708E+01
 -0.630473014340E+01 -0.630957451221E+01 -0.631441732376E+01 -0.631925857825E+01
 -0.632409827589E+01 -0.632893641686E+01 -0.633377300132E+01 -0.633860802944E+01
 -0.634344150133E+01 -0.634827341711E+01 -0.635310377689E+01 -0.635793258074E+01
 -0.636275982873E+01 -0.636758552091E+01 -0.637240965731E+01 -0.637723223795E+01
 -0.638205326281E+01 -0.638687273190E+01 -0.639169064517E+01 -0.639650700257E+01
 -0.640132180404E+01 -0.640613504949E+01 -0.641094673883E+01 -0.641575687194E+01
 -0.642056544869E+01 -0.642537246893E+01 -0.643017793250E+01 -0.643498183922E+01
 -0.643978418890E+01 -0.644458498132E+01 -0.644938421626E+01 -0.645418189347E+01
 -0.645897801271E+01 -0.646377257368E+01 -0.646856557611E+01 -0.647335701970E+01
 -0.647814690411E+01 -0.648293522901E+01 -0.648772199406E+01 -0.649250719889E+01
 -0.649729084311E+01 -0.650207292632E+01 -0.650685344812E+01 -0.651163240808E+01
 -0.651640980575E+01 -0.652118564068E+01 -0.652595991238E+01 -0.653073262038E+01
 -0.653550376418E+01 -0.654027334324E+01 -0.654504135704E+01 -0.654980780504E+01
 -0.655457268666E+01 -0.655933600134E+01 -0.656409774847E+01 -0.656885792746E+01
 -0.657361653767E+01 -0.657837357848E+01 -0.658312904923E+01 -0.658788294926E+01
 -0.659263527788E+01 -0.659738603441E+01 -0.660213521813E+01 -0.660688282832E+01
 -0.661162886424E+01 -0.661637332514E+01 -0.662111621026E+01 -0.662585751881E+01
 -0.663059724999E+01 -0.663533540301E+01 -0.664007197704E+01 -0.664480697123E+01
 -0.664954038475E+01 -0.665427221671E+01 -0.665900246626E+01 -0.666373113248E+01
 -0.666845821448E+01 -0.667318371133E+01 -0.667790762210E+01 -0.668262994584E+01
 -0.668735068158E+01 -0.669206982836E+01 -0.669678738518E+01 -0.670150335105E+01
 -0.670621772493E+01 -0.671093050580E+01 -0.671564169263E+01 -0.672035128434E+01
 -0.672505927987E+01 -0.672976567814E+01 -0.673447047804E+01 -0.673917367847E+01
 -0.674387527830E+01 -0.674857527640E+01 -0.675327367160E+01 -0.675797046275E+01
 -0.676266564868E+01 -0.676735922818E+01 -0.677205120005E+01 -0.677674156309E+01
 -0.678143031605E+01 -0.678611745770E+01 -0.679080298677E+01 -0.679548690201E+01
 -0.680016920212E+01 -0.680484988582E+01 -0.680952895178E+01 -0.681420639871E+01
 -0.681888222525E+01 -0.682355643006E+01 -0.682822901179E+01 -0.683289996907E+01
 -0.683756930050E+01 -0.684223700469E+01 -0.684690308023E+01 -0.685156752570E+01
 -0.685623033966E+01 -0.686089152067E+01 -0.686555106726E+01 -0.687020897797E+01
 -0.687486525130E+01 -0.687951988577E+01 -0.688417287985E+01 -0.688882423203E+01
 -0.689347394078E+01 -0.689812200454E+01 -0.690276842175E+01 -0.690741319086E+01
 -0.691205631026E+01 -0.691669777837E+01 -0.692133759358E+01 -0.692597575427E+01
 -0.693061225879E+01 -0.693524710552E+01 -0.693988029280E+01 -0.694451181895E+01
 -0.694914168229E+01 -0.695376988114E+01 -0.695839641378E+01 -0.696302127850E+01
 -0.696764447358E+01 -0.697226599727E+01 -0.697688584782E+01 -0.698150402346E+01
 -0.698612052243E+01 -0.699073534293E+01 -0.699534848316E+01 -0.699995994132E+01
 -0.700456971558E+01 -0.700917780410E+01 -0.701378420504E+01 -0.701838891655E+01
 -0.702299193675E+01 -0.702759326376E+01 -0.703219289569E+01 -0.703679083064E+01
 -0.704138706669E+01 -0.704598160191E+01 -0.705057443437E+01 -0.705516556212E+01
 -0.705975498319E+01 -0.706434269562E+01 -0.706892869742E+01 -0.707351298659E+01
 -0.707809556113E+01 -0.708267641902E+01 -0.708725555823E+01 -0.709183297673E+01
 -0.709640867245E+01 -0.710098264334E+01 -0.710555488733E+01 -0.711012540233E+01
 -0.711469418624E+01 -0.711926123696E+01 -0.712382655237E+01 -0.712839013034E+01
 -0.713295196872E+01 -0.713751206538E+01 -0.714207041814E+01 -0.714662702484E+01
 -0.715118188329E+01 -0.715573499129E+01 -0.716028634664E+01 -0.716483594712E+01
 -0.716938379051E+01 -0.717392987457E+01 -0.717847419704E+01 -0.718301675568E+01
 -0.718755754820E+01 -0.719209657232E+01 -0.719663382576E+01 -0.720116930622E+01
 -0.720570301137E+01 -0.721023493889E+01 -0.721476508645E+01 -0.721929345171E+01
 -0.722382003231E+01 -0.722834482588E+01 -0.723286783004E+01 -0.723738904241E+01
 -0.724190846059E+01 -0.724642608217E+01 -0.725094190473E+01 -0.725545592584E+01
 -0.725996814307E+01 -0.726447855396E+01 -0.726898715605E+01 -0.727349394687E+01
 -0.727799892394E+01 -0.728250208477E+01 -0.728700342685E+01 -0.729150294768E+01
 -0.729600064472E+01 -0.730049651546E+01 -0.730499055734E+01 -0.730948276781E+01
 -0.731397314431E+01 -0.731846168426E+01 -0.732294838508E+01 -0.732743324418E+01
 -0.733191625895E+01 -0.733639742678E+01 -0.734087674505E+01 -0.734535421111E+01
 -0.734982982233E+01 -0.735430357605E+01 -0.735877546961E+01 -0.736324550033E+01
 -0.736771366553E+01 -0.737217996251E+01 -0.737664438857E+01 -0.738110694100E+01
 -0.738556761706E+01 -0.739002641404E+01 -0.739448332917E+01 -0.739893835972E+01
 -0.740339150291E+01 -0.740784275598E+01 -0.741229211613E+01 -0.741673958058E+01
 -0.742118514653E+01 -0.742562881115E+01 -0.743007057164E+01 -0.743451042515E+01
 -0.743894836884E+01 -0.744338439987E+01 -0.744781851538E+01 -0.745225071249E+01
 -0.745668098832E+01 -0.746110933998E+01 -0.746553576457E+01 -0.746996025919E+01
 -0.747438282092E+01 -0.747880344682E+01 -0.748322213396E+01 -0.748763887940E+01
 -0.749205368017E+01 -0.749646653330E+01 -0.750087743584E+01 -0.750528638478E+01
 -0.750969337713E+01 -0.751409840990E+01 -0.751850148006E+01 -0.752290258460E+01
 -0.752730172047E+01 -0.753169888465E+01 -0.753609407408E+01 -0.754048728569E+01
 -0.754487851643E+01 -0.754926776320E+01 -0.755365502293E+01 -0.755804029251E+01
 -0.756242356884E+01 -0.756680484880E+01 -0.757118412927E+01 -0.757556140711E+01
 -0.757993667918E+01 -0.758430994232E+01 -0.758868119338E+01 -0.759305042919E+01
 -0.759741764655E+01 -0.760178284229E+01 -0.760614601321E+01 -0.761050715609E+01
 -0.761486626772E+01 -0.761922334488E+01 -0.762357838433E+01 -0.762793138282E+01
 -0.763228233711E+01 -0.763663124393E+01 -0.764097810001E+01 -0.764532290207E+01
 -0.764966564682E+01 -0.765400633097E+01 -0.765834495120E+01 -0.766268150420E+01
 -0.766701598665E+01 -0.767134839522E+01 -0.767567872655E+01 -0.768000697731E+01
 -0.768433314412E+01 -0.768865722363E+01 -0.769297921245E+01 -0.769729910719E+01
 -0.770161690446E+01 -0.770593260086E+01 -0.771024619297E+01 -0.771455767738E+01
 -0.771886705064E+01 -0.772317430932E+01 -0.772747944998E+01 -0.773178246915E+01
 -0.773608336337E+01 -0.774038212917E+01 -0.774467876306E+01 -0.774897326155E+01
 -0.775326562114E+01 -0.775755583832E+01 -0.776184390958E+01 -0.776612983138E+01
 -0.777041360020E+01 -0.777469521249E+01 -0.777897466470E+01 -0.778325195326E+01
 -0.778752707461E+01 -0.779180002517E+01 -0.779607080135E+01 -0.780033939956E+01
 -0.780460581620E+01 -0.780887004765E+01 -0.781313209030E+01 -0.781739194050E+01
 -0.782164959464E+01 -0.782590504906E+01 -0.783015830010E+01 -0.783440934411E+01
 -0.783865817741E+01 -0.784290479632E+01 -0.784714919717E+01 -0.785139137624E+01
 -0.785563132983E+01 -0.785986905424E+01 -0.786410454574E+01 -0.786833780060E+01
 -0.787256881508E+01 -0.787679758543E+01 -0.788102410791E+01 -0.788524837875E+01
 -0.788947039417E+01 -0.789369015040E+01 -0.789790764365E+01 -0.790212287013E+01
 -0.790633582602E+01 -0.791054650752E+01 -0.791475491081E+01 -0.791896103205E+01
 -0.792316486741E+01 -0.792736641305E+01 -0.793156566510E+01 -0.793576261971E+01
 -0.793995727301E+01 -0.794414962112E+01 -0.794833966016E+01 -0.795252738622E+01
 -0.795671279541E+01 -0.796089588382E+01 -0.796507664753E+01 -0.796925508260E+01
 -0.797343118511E+01 -0.797760495111E+01 -0.798177637666E+01 -0.798594545778E+01
 -0.799011219052E+01 -0.799427657091E+01 -0.799843859494E+01 -0.800259825865E+01
 -0.800675555801E+01 -0.801091048904E+01 -0.801506304771E+01 -0.801921323000E+01
 -0.802336103188E+01 -0.802750644932E+01 -0.803164947825E+01 -0.803579011463E+01
 -0.803992835440E+01 -0.804406419348E+01 -0.804819762779E+01 -0.805232865326E+01
 -0.805645726578E+01 -0.806058346125E+01 -0.806470723556E+01 -0.806882858459E+01
 -0.807294750423E+01 -0.807706399032E+01 -0.808117803874E+01 -0.808528964533E+01
 -0.808939880594E+01 -0.809350551639E+01 -0.809760977252E+01 -0.810171157015E+01
 -0.810581090508E+01 -0.810990777313E+01 -0.811400217008E+01 -0.811809409173E+01
 -0.812218353386E+01 -0.812627049223E+01 -0.813035496262E+01 -0.813443694078E+01
 -0.813851642246E+01 -0.814259340340E+01 -0.814666787934E+01 -0.815073984600E+01
 -0.815480929910E+01 -0.815887623436E+01 -0.816294064747E+01 -0.816700253414E+01
 -0.817106189005E+01 -0.817511871088E+01 -0.817917299230E+01 -0.818322472998E+01
 -0.818727391958E+01 -0.819132055675E+01 -0.819536463713E+01 -0.819940615635E+01
 -0.820344511004E+01 -0.820748149383E+01 -0.821151530333E+01 -0.821554653413E+01
 -0.821957518184E+01 -0.822360124204E+01 -0.822762471032E+01 -0.823164558226E+01
 -0.823566385342E+01 -0.823967951935E+01 -0.824369257562E+01 -0.824770301776E+01
 -0.825171084132E+01 -0.825571604182E+01 -0.825971861479E+01 -0.826371855573E+01
 -0.826771586017E+01 -0.827171052359E+01 -0.827570254149E+01 -0.827969190935E+01
 -0.828367862266E+01 -0.828766267688E+01 -0.829164406748E+01 -0.829562278990E+01
 -0.829959883961E+01 -0.830357221203E+01 -0.830754290261E+01 -0.831151090676E+01
 -0.831547621992E+01 -0.831943883748E+01 -0.832339875485E+01 -0.832735596743E+01
 -0.833131047061E+01 -0.833526225977E+01 -0.833921133028E+01 -0.834315767752E+01
 -0.834710129683E+01 -0.835104218358E+01 -0.835498033311E+01 -0.835891574076E+01
 -0.836284840185E+01 -0.836677831172E+01 -0.837070546567E+01 -0.837462985902E+01
 -0.837855148707E+01 -0.838247034512E+01 -0.838638642844E+01 -0.839029973233E+01
 -0.839421025205E+01 -0.839811798287E+01 -0.840202292005E+01 -0.840592505884E+01
 -0.840982439448E+01 -0.841372092221E+01 -0.841761463727E+01 -0.842150553486E+01
 -0.842539361022E+01 -0.842927885854E+01 -0.843316127503E+01 -0.843704085488E+01
 -0.844091759328E+01 -0.844479148541E+01 -0.844866252644E+01 -0.845253071153E+01
 -0.845639603586E+01 -0.846025849456E+01 -0.846411808277E+01 -0.846797479565E+01
 -0.847182862832E+01 -0.847567957589E+01 -0.847952763350E+01 -0.848337279623E+01
 -0.848721505921E+01 -0.849105441752E+01 -0.849489086625E+01 -0.849872440047E+01
 -0.850255501528E+01 -0.850638270572E+01 -0.851020746687E+01 -0.851402929376E+01
 -0.851784818146E+01 -0.852166412499E+01 -0.852547711939E+01 -0.852928715969E+01
 -0.853309424089E+01 -0.853689835802E+01 -0.854069950607E+01 -0.854449768005E+01
 -0.854829287494E+01 -0.855208508572E+01 -0.855587430737E+01 -0.855966053486E+01
 -0.856344376315E+01 -0.856722398720E+01 -0.857100120195E+01 -0.857477540235E+01
 -0.857854658333E+01 -0.858231473982E+01 -0.858607986673E+01 -0.858984195899E+01
 -0.859360101149E+01 -0.859735701915E+01 -0.860110997684E+01 -0.860485987946E+01
 -0.860860672189E+01 -0.861235049900E+01 -0.861609120565E+01 -0.861982883670E+01
 -0.862356338701E+01 -0.862729485142E+01 -0.863102322477E+01 -0.863474850188E+01
 -0.863847067759E+01 -0.864218974671E+01 -0.864590570406E+01 -0.864961854443E+01
 -0.865332826263E+01 -0.865703485344E+01 -0.866073831165E+01 -0.866443863203E+01
 -0.866813580936E+01 -0.867182983840E+01 -0.867552071390E+01 -0.867920843062E+01
 -0.868289298330E+01 -0.868657436668E+01 -0.869025257547E+01 -0.869392760442E+01
 -0.869759944823E+01 -0.870126810161E+01 -0.870493355927E+01 -0.870859581590E+01
 -0.871225486619E+01 -0.871591070483E+01 -0.871956332648E+01 -0.872321272583E+01
 -0.872685889752E+01 -0.873050183622E+01 -0.873414153658E+01 -0.873777799324E+01
 -0.874141120083E+01 -0.874504115399E+01 -0.874866784733E+01 -0.875229127547E+01
 -0.875591143303E+01 -0.875952831460E+01 -0.876314191478E+01 -0.876675222815E+01
 -0.877035924931E+01 -0.877396297283E+01 -0.877756339327E+01 -0.878116050520E+01
 -0.878475430317E+01 -0.878834478175E+01 -0.879193193546E+01 -0.879551575884E+01
 -0.879909624643E+01 -0.880267339274E+01 -0.880624719230E+01 -0.880981763961E+01
 -0.881338472918E+01 -0.881694845550E+01 -0.882050881307E+01 -0.882406579636E+01
 -0.882761939986E+01 -0.883116961803E+01 -0.883471644535E+01 -0.883825987626E+01
 -0.884179990522E+01 -0.884533652667E+01 -0.884886973505E+01 -0.885239952479E+01
 -0.885592589032E+01 -0.885944882606E+01 -0.886296832641E+01 -0.886648438578E+01
 -0.886999699858E+01 -0.887350615918E+01 -0.887701186199E+01 -0.888051410138E+01
 -0.888401287172E+01 -0.888750816737E+01 -0.889099998270E+01 -0.889448831207E+01
 -0.889797314981E+01 -0.890145449027E+01 -0.890493232779E+01 -0.890840665668E+01
 -0.891187747128E+01 -0.891534476589E+01 -0.891880853483E+01 -0.892226877240E+01
 -0.892572547288E+01 -0.892917863058E+01 -0.893262823977E+01 -0.893607429474E+01
 -0.893951678974E+01 -0.894295571904E+01 -0.894639107691E+01 -0.894982285758E+01
 -0.895325105531E+01 -0.895667566434E+01 -0.896009667888E+01 -0.896351409318E+01
 -0.896692790144E+01 -0.897033809788E+01 -0.897374467671E+01 -0.897714763212E+01
 -0.898054695831E+01 -0.898394264947E+01 -0.898733469977E+01 -0.899072310339E+01
 -0.899410785450E+01 -0.899748894725E+01 -0.900086637581E+01 -0.900424013432E+01
 -0.900761021693E+01 -0.901097661777E+01 -0.901433933096E+01 -0.901769835064E+01
 -0.902105367092E+01 -0.902440528592E+01 -0.902775318972E+01 -0.903109737645E+01
 -0.903443784017E+01 -0.903777457499E+01 -0.904110757498E+01 -0.904443683422E+01
 -0.904776234676E+01 -0.905108410668E+01 -0.905440210802E+01 -0.905771634483E+01