pair_style hybrid/overlay eam/alloy eam/fs
pair_coeff * * eam/alloy FeCCr_d.eam.alloy Fe C Cr
pair_coeff * * eam/fs FeCCr_s.eam.fs Fe C Cr