 pair_style hybrid/overlay eam/alloy eam/fs
 pair_coeff * * eam/alloy FeCrNi_d.eam.alloy Fe Cr Ni
 pair_coeff * * eam/fs FeCrNi_s.eam.fs Fe Cr Ni
 3 Fe Cr Ni
        5000   1.0000000000000000E-003        5000   1.0600000000000000E-003   5.2999999999999998     
           0   55.844999999999999        2.8553246300000001       bcc
  0.000000000000E+00 -0.159164765840E+00 -0.223304015223E+00 -0.271809632851E+00
 -0.312222923603E+00 -0.347464948431E+00 -0.379033805229E+00 -0.407819432864E+00
 -0.434401675737E+00 -0.459183295148E+00 -0.482457539144E+00 -0.504445786317E+00
 -0.525320025809E+00 -0.545217031558E+00 -0.564247699345E+00 -0.582503423197E+00
 -0.600060583572E+00 -0.616983788858E+00 -0.633328268979E+00 -0.649141677389E+00
 -0.664465470934E+00 -0.679335982485E+00 -0.693785266042E+00 -0.707841770647E+00
 -0.721530883682E+00 -0.734875373213E+00 -0.747895751411E+00 -0.760610575601E+00
 -0.773036699548E+00 -0.785189484676E+00 -0.797082978763E+00 -0.808730068035E+00
 -0.820142607338E+00 -0.831331532133E+00 -0.842306955330E+00 -0.853078251383E+00
 -0.863654129647E+00 -0.874042698625E+00 -0.884251522450E+00 -0.894287670711E+00
 -0.904157762573E+00 -0.913868005960E+00 -0.923424232456E+00 -0.932831928494E+00
 -0.942096263298E+00 -0.951222113976E+00 -0.960214088123E+00 -0.969076544223E+00
 -0.977813610108E+00 -0.986429199688E+00 -0.994927028162E+00 -0.100331062586E+01
 -0.101158335088E+01 -0.101974840059E+01 -0.102780882227E+01 -0.103576752271E+01
 -0.104362727717E+01 -0.105139073754E+01 -0.105906043990E+01 -0.106663881147E+01
 -0.107412817703E+01 -0.108153076490E+01 -0.108884871243E+01 -0.109608407113E+01
 -0.110323881139E+01 -0.111031482695E+01 -0.111731393898E+01 -0.112423789991E+01
 -0.113108839702E+01 -0.113786705578E+01 -0.114457544298E+01 -0.115121506964E+01
 -0.115778739376E+01 -0.116429382288E+01 -0.117073571651E+01 -0.117711438836E+01
 -0.118343110852E+01 -0.118968710542E+01 -0.119588356772E+01 -0.120202164611E+01
 -0.120810245500E+01 -0.121412707405E+01 -0.122009654971E+01 -0.122601189661E+01
 -0.123187409894E+01 -0.123768411165E+01 -0.124344286169E+01 -0.124915124915E+01
 -0.125481014834E+01 -0.126042040876E+01 -0.126598285616E+01 -0.127149829337E+01
 -0.127696750127E+01 -0.128239123955E+01 -0.128777024752E+01 -0.129310524490E+01
 -0.129839693252E+01 -0.130364599299E+01 -0.130885309138E+01 -0.131401887584E+01
 -0.131914397820E+01 -0.132422901450E+01 -0.132927458560E+01 -0.133428127767E+01
 -0.133924966266E+01 -0.134418029882E+01 -0.134907373115E+01 -0.135393049180E+01
 -0.135875110055E+01 -0.136353606513E+01 -0.136828588169E+01 -0.137300103512E+01
 -0.137768199940E+01 -0.138232923796E+01 -0.138694320400E+01 -0.139152434081E+01
 -0.139607308205E+01 -0.140058985207E+01 -0.140507506616E+01 -0.140952913083E+01
 -0.141395244407E+01 -0.141834539560E+01 -0.142270836710E+01 -0.142704173244E+01
 -0.143134585791E+01 -0.143562110243E+01 -0.143986781777E+01 -0.144408634870E+01
 -0.144827703325E+01 -0.145244020285E+01 -0.145657618250E+01 -0.146068529099E+01
 -0.146476784103E+01 -0.146882413940E+01 -0.147285448715E+01 -0.147685917971E+01
 -0.148083850705E+01 -0.148479275382E+01 -0.148872219949E+01 -0.149262711846E+01
 -0.149650778023E+01 -0.150036444947E+01 -0.150419738619E+01 -0.150800684580E+01
 -0.151179307928E+01 -0.151555633325E+01 -0.151929685008E+01 -0.152301486800E+01
 -0.152671062120E+01 -0.153038433993E+01 -0.153403625055E+01 -0.153766657568E+01
 -0.154127553426E+01 -0.154486334163E+01 -0.154843020962E+01 -0.155197634661E+01
 -0.155550195764E+01 -0.155900724448E+01 -0.156249240567E+01 -0.156595763661E+01
 -0.156940312967E+01 -0.157282907418E+01 -0.157623565655E+01 -0.157962306031E+01
 -0.158299146619E+01 -0.158634105217E+01 -0.158967199353E+01 -0.159298446291E+01
 -0.159627863038E+01 -0.159955466348E+01 -0.160281272726E+01 -0.160605298438E+01
 -0.160927559510E+01 -0.161248071735E+01 -0.161566850679E+01 -0.161883911686E+01
 -0.162199269879E+01 -0.162512940167E+01 -0.162824937250E+01 -0.163135275620E+01
 -0.163443969568E+01 -0.163751033186E+01 -0.164056480373E+01 -0.164360324835E+01
 -0.164662580095E+01 -0.164963259487E+01 -0.165262376171E+01 -0.165559943125E+01
 -0.165855973157E+01 -0.166150478904E+01 -0.166443472837E+01 -0.166734967260E+01
 -0.167024974321E+01 -0.167313506005E+01 -0.167600574146E+01 -0.167886190424E+01
 -0.168170366368E+01 -0.168453113363E+01 -0.168734442648E+01 -0.169014365321E+01
 -0.169292892339E+01 -0.169570034525E+01 -0.169845802565E+01 -0.170120207015E+01
 -0.170393258299E+01 -0.170664966716E+01 -0.170935342437E+01 -0.171204395512E+01
 -0.171472135867E+01 -0.171738573312E+01 -0.172003717537E+01 -0.172267578119E+01
 -0.172530164521E+01 -0.172791486093E+01 -0.173051552077E+01 -0.173310371606E+01
 -0.173567953710E+01 -0.173824307311E+01 -0.174079441229E+01 -0.174333364184E+01
 -0.174586084797E+01 -0.174837611589E+01 -0.175087952987E+01 -0.175337117322E+01
 -0.175585112832E+01 -0.175831947662E+01 -0.176077629870E+01 -0.176322167421E+01
 -0.176565568194E+01 -0.176807839982E+01 -0.177048990494E+01 -0.177289027352E+01
 -0.177527958099E+01 -0.177765790195E+01 -0.178002531020E+01 -0.178238187877E+01
 -0.178472767989E+01 -0.178706278505E+01 -0.178938726496E+01 -0.179170118960E+01
 -0.179400462824E+01 -0.179629764939E+01 -0.179858032087E+01 -0.180085270981E+01
 -0.180311488264E+01 -0.180536690510E+01 -0.180760884228E+01 -0.180984075859E+01
 -0.181206271781E+01 -0.181427478305E+01 -0.181647701681E+01 -0.181866948096E+01
 -0.182085223675E+01 -0.182302534482E+01 -0.182518886523E+01 -0.182734285742E+01
 -0.182948738027E+01 -0.183162249209E+01 -0.183374825060E+01 -0.183586471297E+01
 -0.183797193584E+01 -0.184006997528E+01 -0.184215888683E+01 -0.184423872550E+01
 -0.184630954579E+01 -0.184837140166E+01 -0.185042434659E+01 -0.185246843354E+01
 -0.185450371497E+01 -0.185653024288E+01 -0.185854806874E+01 -0.186055724359E+01
 -0.186255781797E+01 -0.186454984198E+01 -0.186653336523E+01 -0.186850843690E+01
 -0.187047510572E+01 -0.187243341999E+01 -0.187438342754E+01 -0.187632517581E+01
 -0.187825871180E+01 -0.188018408207E+01 -0.188210133280E+01 -0.188401050973E+01
 -0.188591165823E+01 -0.188780482325E+01 -0.188969004934E+01 -0.189156738067E+01
 -0.189343686103E+01 -0.189529853383E+01 -0.189715244209E+01 -0.189899862848E+01
 -0.190083713529E+01 -0.190266800444E+01 -0.190449127752E+01 -0.190630699575E+01
 -0.190811519999E+01 -0.190991593078E+01 -0.191170922831E+01 -0.191349513241E+01
 -0.191527368261E+01 -0.191704491809E+01 -0.191880887772E+01 -0.192056560004E+01
 -0.192231512327E+01 -0.192405748532E+01 -0.192579272379E+01 -0.192752087598E+01
 -0.192924197885E+01 -0.193095606912E+01 -0.193266318316E+01 -0.193436335708E+01
 -0.193605662669E+01 -0.193774302750E+01 -0.193942259476E+01 -0.194109536343E+01
 -0.194276136817E+01 -0.194442064341E+01 -0.194607322327E+01 -0.194771914162E+01
 -0.194935843207E+01 -0.195099112796E+01 -0.195261726236E+01 -0.195423686810E+01
 -0.195584997775E+01 -0.195745662362E+01 -0.195905683779E+01 -0.196065065208E+01
 -0.196223809808E+01 -0.196381920712E+01 -0.196539401031E+01 -0.196696253851E+01
 -0.196852482236E+01 -0.197008089226E+01 -0.197163077840E+01 -0.197317451071E+01
 -0.197471211892E+01 -0.197624363255E+01 -0.197776908088E+01 -0.197928849297E+01
 -0.198080189769E+01 -0.198230932368E+01 -0.198381079937E+01 -0.198530635300E+01
 -0.198679601258E+01 -0.198827980592E+01 -0.198975776066E+01 -0.199122990420E+01
 -0.199269626376E+01 -0.199415686636E+01 -0.199561173885E+01 -0.199706090785E+01
 -0.199850439981E+01 -0.199994224101E+01 -0.200137445751E+01 -0.200280107520E+01
 -0.200422211980E+01 -0.200563761684E+01 -0.200704759166E+01 -0.200845206944E+01
 -0.200985107518E+01 -0.201124463370E+01 -0.201263276966E+01 -0.201401550754E+01
 -0.201539287165E+01 -0.201676488614E+01 -0.201813157500E+01 -0.201949296204E+01
 -0.202084907092E+01 -0.202219992514E+01 -0.202354554803E+01 -0.202488596277E+01
 -0.202622119239E+01 -0.202755125975E+01 -0.202887618757E+01 -0.203019599841E+01
 -0.203151071470E+01 -0.203282035868E+01 -0.203412495248E+01 -0.203542451807E+01
 -0.203671907727E+01 -0.203800865178E+01 -0.203929326312E+01 -0.204057293269E+01
 -0.204184768177E+01 -0.204311753146E+01 -0.204438250276E+01 -0.204564261650E+01
 -0.204689789341E+01 -0.204814835407E+01 -0.204939401893E+01 -0.205063490829E+01
 -0.205187104235E+01 -0.205310244118E+01 -0.205432912469E+01 -0.205555111269E+01
 -0.205676842488E+01 -0.205798108079E+01 -0.205918909986E+01 -0.206039250141E+01
 -0.206159130462E+01 -0.206278552856E+01 -0.206397519219E+01 -0.206516031434E+01
 -0.206634091371E+01 -0.206751700892E+01 -0.206868861846E+01 -0.206985576068E+01
 -0.207101845385E+01 -0.207217671613E+01 -0.207333056554E+01 -0.207448002001E+01
 -0.207562509736E+01 -0.207676581530E+01 -0.207790219144E+01 -0.207903424326E+01
 -0.208016198816E+01 -0.208128544343E+01 -0.208240462625E+01 -0.208351955370E+01
 -0.208463024276E+01 -0.208573671031E+01 -0.208683897311E+01 -0.208793704786E+01
 -0.208903095113E+01 -0.209012069940E+01 -0.209120630906E+01 -0.209228779640E+01
 -0.209336517760E+01 -0.209443846878E+01 -0.209550768592E+01 -0.209657284496E+01
 -0.209763396170E+01 -0.209869105187E+01 -0.209974413111E+01 -0.210079321498E+01
 -0.210183831892E+01 -0.210287945831E+01 -0.210391664842E+01 -0.210494990447E+01
 -0.210597924154E+01 -0.210700467467E+01 -0.210802621879E+01 -0.210904388875E+01
 -0.211005769933E+01 -0.211106766521E+01 -0.211207380100E+01 -0.211307612120E+01
 -0.211407464028E+01 -0.211506937258E+01 -0.211606033238E+01 -0.211704753389E+01
 -0.211803099123E+01 -0.211901071844E+01 -0.211998672949E+01 -0.212095903827E+01
 -0.212192765860E+01 -0.212289260420E+01 -0.212385388874E+01 -0.212481152582E+01
 -0.212576552894E+01 -0.212671591155E+01 -0.212766268701E+01 -0.212860586862E+01
 -0.212954546960E+01 -0.213048150311E+01 -0.213141398223E+01 -0.213234291996E+01
 -0.213326832926E+01 -0.213419022299E+01 -0.213510861396E+01 -0.213602351491E+01
 -0.213693493850E+01 -0.213784289734E+01 -0.213874740396E+01 -0.213964847083E+01
 -0.214054611035E+01 -0.214144033487E+01 -0.214233115665E+01 -0.214321858791E+01
 -0.214410264079E+01 -0.214498332737E+01 -0.214586065968E+01 -0.214673464968E+01
 -0.214760530925E+01 -0.214847265023E+01 -0.214933668440E+01 -0.215019742347E+01
 -0.215105487908E+01 -0.215190906285E+01 -0.215275998629E+01 -0.215360766089E+01
 -0.215445209805E+01 -0.215529330915E+01 -0.215613130547E+01 -0.215696609827E+01
 -0.215779769873E+01 -0.215862611799E+01 -0.215945136711E+01 -0.216027345711E+01
 -0.216109239897E+01 -0.216190820358E+01 -0.216272088181E+01 -0.216353044446E+01
 -0.216433690226E+01 -0.216514026593E+01 -0.216594054609E+01 -0.216673775333E+01
 -0.216753189820E+01 -0.216832299118E+01 -0.216911104270E+01 -0.216989606313E+01
 -0.217067806282E+01 -0.217145705205E+01 -0.217223304103E+01 -0.217300603997E+01
 -0.217377605898E+01 -0.217454310814E+01 -0.217530719750E+01 -0.217606833704E+01
 -0.217682653669E+01 -0.217758180635E+01 -0.217833415585E+01 -0.217908359500E+01
 -0.217983013353E+01 -0.218057378116E+01 -0.218131454753E+01 -0.218205244226E+01
 -0.218278747491E+01 -0.218351965499E+01 -0.218424899199E+01 -0.218497549533E+01
 -0.218569917440E+01 -0.218642003854E+01 -0.218713809704E+01 -0.218785335915E+01
 -0.218856583410E+01 -0.218927553103E+01 -0.218998245909E+01 -0.219068662735E+01
 -0.219138804485E+01 -0.219208672059E+01 -0.219278266353E+01 -0.219347588258E+01
 -0.219416638662E+01 -0.219485418447E+01 -0.219553928494E+01 -0.219622169677E+01
 -0.219690142869E+01 -0.219757848935E+01 -0.219825288740E+01 -0.219892463143E+01
 -0.219959373000E+01 -0.220026019161E+01 -0.220092402476E+01 -0.220158523788E+01
 -0.220224383937E+01 -0.220289983759E+01 -0.220355324088E+01 -0.220420405752E+01
 -0.220485229577E+01 -0.220549796384E+01 -0.220614106990E+01 -0.220678162211E+01
 -0.220741962857E+01 -0.220805509734E+01 -0.220868803647E+01 -0.220931845395E+01
 -0.220994635775E+01 -0.221057175580E+01 -0.221119465599E+01 -0.221181506617E+01
 -0.221243299418E+01 -0.221304844781E+01 -0.221366143481E+01 -0.221427196291E+01
 -0.221488003979E+01 -0.221548567312E+01 -0.221608887051E+01 -0.221668963956E+01
 -0.221728798782E+01 -0.221788392282E+01 -0.221847745205E+01 -0.221906858298E+01
 -0.221965732302E+01 -0.222024367958E+01 -0.222082766002E+01 -0.222140927168E+01
 -0.222198852185E+01 -0.222256541782E+01 -0.222313996681E+01 -0.222371217604E+01
 -0.222428205269E+01 -0.222484960391E+01 -0.222541483682E+01 -0.222597775850E+01
 -0.222653837602E+01 -0.222709669640E+01 -0.222765272664E+01 -0.222820647372E+01
 -0.222875794458E+01 -0.222930714613E+01 -0.222985408526E+01 -0.223039876881E+01
 -0.223094120362E+01 -0.223148139649E+01 -0.223201935418E+01 -0.223255508345E+01
 -0.223308859100E+01 -0.223361988353E+01 -0.223414896768E+01 -0.223467585011E+01
 -0.223520053740E+01 -0.223572303615E+01 -0.223624335290E+01 -0.223676149417E+01
 -0.223727746647E+01 -0.223779127628E+01 -0.223830293002E+01 -0.223881243414E+01
 -0.223931979501E+01 -0.223982501901E+01 -0.224032811248E+01 -0.224082908174E+01
 -0.224132793307E+01 -0.224182467276E+01 -0.224231930703E+01 -0.224281184211E+01
 -0.224330228419E+01 -0.224379063943E+01 -0.224427691398E+01 -0.224476111395E+01
 -0.224524324545E+01 -0.224572331454E+01 -0.224620132726E+01 -0.224667728964E+01
 -0.224715120768E+01 -0.224762308736E+01 -0.224809293461E+01 -0.224856075539E+01
 -0.224902655558E+01 -0.224949034107E+01 -0.224995211771E+01 -0.225041189136E+01
 -0.225086966782E+01 -0.225132545287E+01 -0.225177925230E+01 -0.225223107184E+01
 -0.225268091722E+01 -0.225312879415E+01 -0.225357470829E+01 -0.225401866532E+01
 -0.225446067086E+01 -0.225490073054E+01 -0.225533884994E+01 -0.225577503464E+01
 -0.225620929019E+01 -0.225664162212E+01 -0.225707203594E+01 -0.225750053713E+01
 -0.225792713116E+01 -0.225835182348E+01 -0.225877461952E+01 -0.225919552467E+01
 -0.225961454433E+01 -0.226003168385E+01 -0.226044694859E+01 -0.226086034387E+01
 -0.226127187499E+01 -0.226168154723E+01 -0.226208936587E+01 -0.226249533614E+01
 -0.226289946327E+01 -0.226330175247E+01 -0.226370220893E+01 -0.226410083781E+01
 -0.226449764426E+01 -0.226489263341E+01 -0.226528581037E+01 -0.226567718023E+01
 -0.226606674807E+01 -0.226645451894E+01 -0.226684049787E+01 -0.226722468989E+01
 -0.226760709999E+01 -0.226798773315E+01 -0.226836659433E+01 -0.226874368849E+01
 -0.226911902054E+01 -0.226949259540E+01 -0.226986441795E+01 -0.227023449307E+01
 -0.227060282562E+01 -0.227096942042E+01 -0.227133428231E+01 -0.227169741608E+01
 -0.227205882653E+01 -0.227241851841E+01 -0.227277649648E+01 -0.227313276548E+01
 -0.227348733013E+01 -0.227384019511E+01 -0.227419136513E+01 -0.227454084484E+01
 -0.227488863890E+01 -0.227523475193E+01 -0.227557918857E+01 -0.227592195340E+01
 -0.227626305102E+01 -0.227660248599E+01 -0.227694026287E+01 -0.227727638619E+01
 -0.227761086047E+01 -0.227794369022E+01 -0.227827487994E+01 -0.227860443408E+01
 -0.227893235712E+01 -0.227925865348E+01 -0.227958332761E+01 -0.227990638390E+01
 -0.228022782676E+01 -0.228054766057E+01 -0.228086588970E+01 -0.228118251848E+01
 -0.228149755127E+01 -0.228181099237E+01 -0.228212284610E+01 -0.228243311675E+01
 -0.228274180859E+01 -0.228304892588E+01 -0.228335447287E+01 -0.228365845380E+01
 -0.228396087287E+01 -0.228426173430E+01 -0.228456104227E+01 -0.228485880096E+01
 -0.228515501453E+01 -0.228544968713E+01 -0.228574282288E+01 -0.228603442590E+01
 -0.228632450031E+01 -0.228661305019E+01 -0.228690007961E+01 -0.228718559264E+01
 -0.228746959334E+01 -0.228775208573E+01 -0.228803307384E+01 -0.228831256168E+01
 -0.228859055324E+01 -0.228886705250E+01 -0.228914206344E+01 -0.228941559000E+01
 -0.228968763614E+01 -0.228995820577E+01 -0.229022730283E+01 -0.229049493120E+01
 -0.229076109479E+01 -0.229102579746E+01 -0.229128904308E+01 -0.229155083551E+01
 -0.229181117858E+01 -0.229207007612E+01 -0.229232753195E+01 -0.229258354986E+01
 -0.229283813365E+01 -0.229309128709E+01 -0.229334301394E+01 -0.229359331797E+01
 -0.229384220290E+01 -0.229408967247E+01 -0.229433573038E+01 -0.229458038036E+01
 -0.229482362607E+01 -0.229506547122E+01 -0.229530591946E+01 -0.229554497444E+01
 -0.229578263983E+01 -0.229601891923E+01 -0.229625381628E+01 -0.229648733459E+01
 -0.229671947775E+01 -0.229695024935E+01 -0.229717965296E+01 -0.229740769215E+01
 -0.229763437046E+01 -0.229785969145E+01 -0.229808365862E+01 -0.229830627552E+01
 -0.229852754563E+01 -0.229874747246E+01 -0.229896605950E+01 -0.229918331020E+01
 -0.229939922805E+01 -0.229961381648E+01 -0.229982707894E+01 -0.230003901886E+01
 -0.230024963966E+01 -0.230045894474E+01 -0.230066693751E+01 -0.230087362134E+01
 -0.230107899963E+01 -0.230128307573E+01 -0.230148585299E+01 -0.230168733477E+01
 -0.230188752439E+01 -0.230208642519E+01 -0.230228404047E+01 -0.230248037354E+01
 -0.230267542770E+01 -0.230286920621E+01 -0.230306171237E+01 -0.230325294943E+01
 -0.230344292064E+01 -0.230363162924E+01 -0.230381907848E+01 -0.230400527156E+01
 -0.230419021171E+01 -0.230437390213E+01 -0.230455634601E+01 -0.230473754654E+01
 -0.230491750688E+01 -0.230509623021E+01 -0.230527371968E+01 -0.230544997842E+01
 -0.230562500959E+01 -0.230579881630E+01 -0.230597140167E+01 -0.230614276880E+01
 -0.230631292080E+01 -0.230648186076E+01 -0.230664959174E+01 -0.230681611683E+01
 -0.230698143908E+01 -0.230714556154E+01 -0.230730848726E+01 -0.230747021927E+01
 -0.230763076059E+01 -0.230779011424E+01 -0.230794828322E+01 -0.230810527053E+01
 -0.230826107916E+01 -0.230841571209E+01 -0.230856917228E+01 -0.230872146270E+01
 -0.230887258631E+01 -0.230902254604E+01 -0.230917134483E+01 -0.230931898560E+01
 -0.230946547129E+01 -0.230961080478E+01 -0.230975498899E+01 -0.230989802681E+01
 -0.231003992112E+01 -0.231018067480E+01 -0.231032029071E+01 -0.231045877170E+01
 -0.231059612065E+01 -0.231073234037E+01 -0.231086743371E+01 -0.231100140349E+01
 -0.231113425253E+01 -0.231126598364E+01 -0.231139659962E+01 -0.231152610326E+01
 -0.231165449734E+01 -0.231178178465E+01 -0.231190796794E+01 -0.231203304999E+01
 -0.231215703353E+01 -0.231227992133E+01 -0.231240171611E+01 -0.231252242060E+01
 -0.231264203752E+01 -0.231276056959E+01 -0.231287801952E+01 -0.231299438999E+01
 -0.231310968370E+01 -0.231322390333E+01 -0.231333705156E+01 -0.231344913106E+01
 -0.231356014447E+01 -0.231367009446E+01 -0.231377898367E+01 -0.231388681473E+01
 -0.231399359028E+01 -0.231409931294E+01 -0.231420398531E+01 -0.231430761002E+01
 -0.231441018965E+01 -0.231451172680E+01 -0.231461222406E+01 -0.231471168401E+01
 -0.231481010920E+01 -0.231490750222E+01 -0.231500386561E+01 -0.231509920192E+01
 -0.231519351370E+01 -0.231528680348E+01 -0.231537907379E+01 -0.231547032714E+01
 -0.231556056606E+01 -0.231564979305E+01 -0.231573801061E+01 -0.231582522123E+01
 -0.231591142740E+01 -0.231599663160E+01 -0.231608083630E+01 -0.231616404397E+01
 -0.231624625706E+01 -0.231632747803E+01 -0.231640770932E+01 -0.231648695337E+01
 -0.231656521261E+01 -0.231664248947E+01 -0.231671878636E+01 -0.231679410571E+01
 -0.231686844990E+01 -0.231694182135E+01 -0.231701422245E+01 -0.231708565557E+01
 -0.231715612311E+01 -0.231722562742E+01 -0.231729417088E+01 -0.231736175586E+01
 -0.231742838469E+01 -0.231749405973E+01 -0.231755878333E+01 -0.231762255780E+01
 -0.231768538549E+01 -0.231774726872E+01 -0.231780820979E+01 -0.231786821103E+01
 -0.231792727472E+01 -0.231798540318E+01 -0.231804259869E+01 -0.231809886353E+01
 -0.231815419999E+01 -0.231820861034E+01 -0.231826209684E+01 -0.231831466175E+01
 -0.231836630733E+01 -0.231841703583E+01 -0.231846684949E+01 -0.231851575054E+01
 -0.231856374122E+01 -0.231861082376E+01 -0.231865700036E+01 -0.231870227325E+01
 -0.231874664463E+01 -0.231879011670E+01 -0.231883269165E+01 -0.231887437169E+01
 -0.231891515898E+01 -0.231895505572E+01 -0.231899406407E+01 -0.231903218619E+01
 -0.231906942426E+01 -0.231910578042E+01 -0.231914125683E+01 -0.231917585563E+01
 -0.231920957896E+01 -0.231924242895E+01 -0.231927440773E+01 -0.231930551742E+01
 -0.231933576013E+01 -0.231936513799E+01 -0.231939365309E+01 -0.231942130754E+01
 -0.231944810343E+01 -0.231947404284E+01 -0.231949912787E+01 -0.231952336059E+01
 -0.231954674308E+01 -0.231956927740E+01 -0.231959096561E+01 -0.231961180978E+01
 -0.231963181195E+01 -0.231965097417E+01 -0.231966929848E+01 -0.231968678693E+01
 -0.231970344153E+01 -0.231971926432E+01 -0.231973425732E+01 -0.231974842254E+01
 -0.231976176199E+01 -0.231977427768E+01 -0.231978597162E+01 -0.231979684578E+01
 -0.231980690217E+01 -0.231981614277E+01 -0.231982456955E+01 -0.231983218451E+01
 -0.231983898959E+01 -0.231984498678E+01 -0.231985017803E+01 -0.231985456529E+01
 -0.231985815052E+01 -0.231986093566E+01 -0.231986292265E+01 -0.231986411343E+01
 -0.231986450993E+01 -0.231986411407E+01 -0.231986292778E+01 -0.231986095297E+01
 -0.231985819156E+01 -0.231985464544E+01 -0.231985031653E+01 -0.231984520673E+01
 -0.231983931791E+01 -0.231983265198E+01 -0.231982521081E+01 -0.231981699629E+01
 -0.231980801028E+01 -0.231979825466E+01 -0.231978773130E+01 -0.231977644205E+01
 -0.231976438876E+01 -0.231975157330E+01 -0.231973799750E+01 -0.231972366321E+01
 -0.231970857226E+01 -0.231969272650E+01 -0.231967612774E+01 -0.231965877781E+01
 -0.231964067853E+01 -0.231962183172E+01 -0.231960223919E+01 -0.231958190273E+01
 -0.231956082417E+01 -0.231953900528E+01 -0.231951644788E+01 -0.231949315373E+01
 -0.231946912464E+01 -0.231944436237E+01 -0.231941886871E+01 -0.231939264543E+01
 -0.231936569429E+01 -0.231933801706E+01 -0.231930961549E+01 -0.231928049135E+01
 -0.231925064637E+01 -0.231922008231E+01 -0.231918880091E+01 -0.231915680391E+01
 -0.231912409303E+01 -0.231909067002E+01 -0.231905653659E+01 -0.231902169447E+01
 -0.231898614537E+01 -0.231894989100E+01 -0.231891293308E+01 -0.231887527331E+01
 -0.231883691339E+01 -0.231879785502E+01 -0.231875809989E+01 -0.231871764968E+01
 -0.231867650609E+01 -0.231863467079E+01 -0.231859214547E+01 -0.231854893178E+01
 -0.231850503141E+01 -0.231846044602E+01 -0.231841517726E+01 -0.231836922680E+01
 -0.231832259629E+01 -0.231827528737E+01 -0.231822730170E+01 -0.231817864092E+01
 -0.231812930665E+01 -0.231807930054E+01 -0.231802862422E+01 -0.231797727931E+01
 -0.231792526743E+01 -0.231787259021E+01 -0.231781924925E+01 -0.231776524618E+01
 -0.231771058259E+01 -0.231765526009E+01 -0.231759928028E+01 -0.231754264476E+01
 -0.231748535512E+01 -0.231742741294E+01 -0.231736881982E+01 -0.231730957734E+01
 -0.231724968706E+01 -0.231718915057E+01 -0.231712796944E+01 -0.231706614524E+01
 -0.231700367952E+01 -0.231694057385E+01 -0.231687682978E+01 -0.231681244887E+01
 -0.231674743266E+01 -0.231668178271E+01 -0.231661550054E+01 -0.231654858771E+01
 -0.231648104574E+01 -0.231641287618E+01 -0.231634408053E+01 -0.231627466034E+01
 -0.231620461712E+01 -0.231613395239E+01 -0.231606266766E+01 -0.231599076444E+01
 -0.231591824424E+01 -0.231584510857E+01 -0.231577135893E+01 -0.231569699680E+01
 -0.231562202369E+01 -0.231554644109E+01 -0.231547025048E+01 -0.231539345335E+01
 -0.231531605117E+01 -0.231523804543E+01 -0.231515943759E+01 -0.231508022913E+01
 -0.231500042152E+01 -0.231492001621E+01 -0.231483901468E+01 -0.231475741837E+01
 -0.231467522874E+01 -0.231459244724E+01 -0.231450907532E+01 -0.231442511442E+01
 -0.231434056599E+01 -0.231425543145E+01 -0.231416971225E+01 -0.231408340982E+01
 -0.231399652559E+01 -0.231390906097E+01 -0.231382101740E+01 -0.231373239629E+01
 -0.231364319906E+01 -0.231355342711E+01 -0.231346308187E+01 -0.231337216473E+01
 -0.231328067710E+01 -0.231318862037E+01 -0.231309599596E+01 -0.231300280524E+01
 -0.231290904961E+01 -0.231281473046E+01 -0.231271984918E+01 -0.231262440714E+01
 -0.231252840572E+01 -0.231243184630E+01 -0.231233473026E+01 -0.231223705895E+01
 -0.231213883376E+01 -0.231204005604E+01 -0.231194072715E+01 -0.231184084846E+01
 -0.231174042131E+01 -0.231163944706E+01 -0.231153792705E+01 -0.231143586264E+01
 -0.231133325517E+01 -0.231123010597E+01 -0.231112641639E+01 -0.231102218776E+01
 -0.231091742141E+01 -0.231081211866E+01 -0.231070628086E+01 -0.231059990931E+01
 -0.231049300534E+01 -0.231038557027E+01 -0.231027760540E+01 -0.231016911206E+01
 -0.231006009156E+01 -0.230995054518E+01 -0.230984047425E+01 -0.230972988007E+01
 -0.230961876392E+01 -0.230950712710E+01 -0.230939497092E+01 -0.230928229664E+01
 -0.230916910558E+01 -0.230905539899E+01 -0.230894117818E+01 -0.230882644441E+01
 -0.230871119897E+01 -0.230859544312E+01 -0.230847917814E+01 -0.230836240529E+01
 -0.230824512585E+01 -0.230812734106E+01 -0.230800905220E+01 -0.230789026051E+01
 -0.230777096726E+01 -0.230765117369E+01 -0.230753088106E+01 -0.230741009061E+01
 -0.230728880358E+01 -0.230716702122E+01 -0.230704474476E+01 -0.230692197545E+01
 -0.230679871451E+01 -0.230667496317E+01 -0.230655072267E+01 -0.230642599423E+01
 -0.230630077907E+01 -0.230617507842E+01 -0.230604889349E+01 -0.230592222550E+01
 -0.230579507566E+01 -0.230566744518E+01 -0.230553933527E+01 -0.230541074714E+01
 -0.230528168198E+01 -0.230515214101E+01 -0.230502212541E+01 -0.230489163639E+01
 -0.230476067513E+01 -0.230462924283E+01 -0.230449734067E+01 -0.230436496985E+01
 -0.230423213154E+01 -0.230409882693E+01 -0.230396505719E+01 -0.230383082350E+01
 -0.230369612704E+01 -0.230356096897E+01 -0.230342535047E+01 -0.230328927270E+01
 -0.230315273682E+01 -0.230301574400E+01 -0.230287829540E+01 -0.230274039217E+01
 -0.230260203547E+01 -0.230246322645E+01 -0.230232396626E+01 -0.230218425605E+01
 -0.230204409696E+01 -0.230190349014E+01 -0.230176243673E+01 -0.230162093786E+01
 -0.230147899468E+01 -0.230133660831E+01 -0.230119377988E+01 -0.230105051053E+01
 -0.230090680139E+01 -0.230076265357E+01 -0.230061806821E+01 -0.230047304641E+01
 -0.230032758930E+01 -0.230018169800E+01 -0.230003537361E+01 -0.229988861725E+01
 -0.229974143003E+01 -0.229959381306E+01 -0.229944576743E+01 -0.229929729425E+01
 -0.229914839462E+01 -0.229899906964E+01 -0.229884932041E+01 -0.229869914802E+01
 -0.229854855355E+01 -0.229839753810E+01 -0.229824610276E+01 -0.229809424861E+01
 -0.229794197673E+01 -0.229778928820E+01 -0.229763618411E+01 -0.229748266552E+01
 -0.229732873352E+01 -0.229717438917E+01 -0.229701963354E+01 -0.229686446771E+01
 -0.229670889274E+01 -0.229655290968E+01 -0.229639651961E+01 -0.229623972358E+01
 -0.229608252265E+01 -0.229592491787E+01 -0.229576691031E+01 -0.229560850100E+01
 -0.229544969100E+01 -0.229529048135E+01 -0.229513087310E+01 -0.229497086730E+01
 -0.229481046498E+01 -0.229464966718E+01 -0.229448847494E+01 -0.229432688930E+01
 -0.229416491128E+01 -0.229400254191E+01 -0.229383978224E+01 -0.229367663327E+01
 -0.229351309605E+01 -0.229334917158E+01 -0.229318486090E+01 -0.229302016501E+01
 -0.229285508495E+01 -0.229268962171E+01 -0.229252377632E+01 -0.229235754978E+01
 -0.229219094310E+01 -0.229202395730E+01 -0.229185659338E+01 -0.229168885233E+01
 -0.229152073516E+01 -0.229135224288E+01 -0.229118337647E+01 -0.229101413693E+01
 -0.229084452526E+01 -0.229067454245E+01 -0.229050418949E+01 -0.229033346736E+01
 -0.229016237705E+01 -0.228999091955E+01 -0.228981909583E+01 -0.228964690689E+01
 -0.228947435369E+01 -0.228930143721E+01 -0.228912815844E+01 -0.228895451833E+01
 -0.228878051786E+01 -0.228860615801E+01 -0.228843143973E+01 -0.228825636400E+01
 -0.228808093178E+01 -0.228790514402E+01 -0.228772900170E+01 -0.228755250576E+01
 -0.228737565716E+01 -0.228719845687E+01 -0.228702090583E+01 -0.228684300498E+01
 -0.228666475529E+01 -0.228648615770E+01 -0.228630721316E+01 -0.228612792260E+01
 -0.228594828698E+01 -0.228576830722E+01 -0.228558798428E+01 -0.228540731908E+01
 -0.228522631256E+01 -0.228504496566E+01 -0.228486327930E+01 -0.228468125442E+01
 -0.228449889195E+01 -0.228431619280E+01 -0.228413315792E+01 -0.228394978820E+01
 -0.228376608459E+01 -0.228358204800E+01 -0.228339767934E+01 -0.228321297954E+01
 -0.228302794951E+01 -0.228284259015E+01 -0.228265690238E+01 -0.228247088712E+01
 -0.228228454526E+01 -0.228209787772E+01 -0.228191088539E+01 -0.228172356918E+01
 -0.228153593000E+01 -0.228134796874E+01 -0.228115968629E+01 -0.228097108356E+01
 -0.228078216143E+01 -0.228059292081E+01 -0.228040336258E+01 -0.228021348763E+01
 -0.228002329686E+01 -0.227983279113E+01 -0.227964197135E+01 -0.227945083839E+01
 -0.227925939313E+01 -0.227906763646E+01 -0.227887556925E+01 -0.227868319237E+01
 -0.227849050671E+01 -0.227829751314E+01 -0.227810421252E+01 -0.227791060574E+01
 -0.227771669364E+01 -0.227752247712E+01 -0.227732795702E+01 -0.227713313421E+01
 -0.227693800956E+01 -0.227674258393E+01 -0.227654685817E+01 -0.227635083314E+01
 -0.227615450970E+01 -0.227595788870E+01 -0.227576097100E+01 -0.227556375745E+01
 -0.227536624889E+01 -0.227516844617E+01 -0.227497035015E+01 -0.227477196167E+01
 -0.227457328157E+01 -0.227437431069E+01 -0.227417504987E+01 -0.227397549996E+01
 -0.227377566179E+01 -0.227357553619E+01 -0.227337512401E+01 -0.227317442607E+01
 -0.227297344321E+01 -0.227277217625E+01 -0.227257062603E+01 -0.227236879337E+01
 -0.227216667910E+01 -0.227196428405E+01 -0.227176160903E+01 -0.227155865487E+01
 -0.227135542238E+01 -0.227115191239E+01 -0.227094812571E+01 -0.227074406316E+01
 -0.227053972556E+01 -0.227033511371E+01 -0.227013022842E+01 -0.226992507051E+01
 -0.226971964079E+01 -0.226951394006E+01 -0.226930796912E+01 -0.226910172879E+01
 -0.226889521986E+01 -0.226868844313E+01 -0.226848139942E+01 -0.226827408950E+01
 -0.226806651419E+01 -0.226785867427E+01 -0.226765057054E+01 -0.226744220380E+01
 -0.226723357483E+01 -0.226702468442E+01 -0.226681553337E+01 -0.226660612247E+01
 -0.226639645249E+01 -0.226618652422E+01 -0.226597633844E+01 -0.226576589595E+01
 -0.226555519751E+01 -0.226534424391E+01 -0.226513303592E+01 -0.226492157432E+01
 -0.226470985989E+01 -0.226449789340E+01 -0.226428567563E+01 -0.226407320733E+01
 -0.226386048929E+01 -0.226364752227E+01 -0.226343430704E+01 -0.226322084436E+01
 -0.226300713500E+01 -0.226279317973E+01 -0.226257897930E+01 -0.226236453447E+01
 -0.226214984600E+01 -0.226193491466E+01 -0.226171974119E+01 -0.226150432636E+01
 -0.226128867092E+01 -0.226107277561E+01 -0.226085664120E+01 -0.226064026842E+01
 -0.226042365804E+01 -0.226020681079E+01 -0.225998972743E+01 -0.225977240870E+01